p cnf 7230 17
-1650 -4681 0
1650 4006 4014 4042 4116 -4680 0
1650 4012 4046 4114 4678 0
-1650 -4679 0
-4006 -4681 0
-4012 -4679 0
-4014 -4681 0
-4046 -4679 0
-4042 -4681 0
4682 4683 0
4002 -4683 0
-4002 -4682 0
4680 4681 0
-4678 4679 0
-4114 -4679 0
-4116 -4681 0
4676 4677 0
